50, 12219
459, 459
878, 876
32, 30
283, 282
962, 960
665, 663
129, 129
349, 348
880, 879
441, 441
29, 27
897, 897
130, 129
642, 642
620, 618
461, 459
962, 960
177, 177
605, 603
114, 114
966, 966
145, 144
514, 513
833, 831
884, 882
98, 96
878, 876
843, 843
316, 315
757, 756
228, 228
154, 153
163, 162
309, 309
827, 825
462, 462
990, 990
894, 894
211, 210
434, 432
65, 63
584, 582
610, 609
586, 585
89, 87
612, 612
113, 111
842, 840
462, 462
100, 99
